letting n =  10
letting blocks =  [[1, 3], [1, 4], [1, 5], [1, 7], [2, 3], [2, 5], [2, 6], [2, 7], [2, 8], [2, 9], [3, 1], [3, 2], [3, 6], [3, 8], [4, 1], [4, 4], [4, 7], [5, 3], [5, 8], [5, 9], [6, 1], [6, 2], [6, 6], [6, 7], [6, 9], [6, 10], [7, 2], [7, 6], [7, 8], [7, 9], [8, 2], [8, 7], [8, 10], [9, 2], [9, 7], [9, 10], [10, 1], [10, 2], [10, 4], [10, 10]]
